(set-info :smt-lib-version 2.6)
(set-logic ALL)
(set-info :source |
Generated on: 2026-06-22
Generator: ppTransSmt github.com/CLEARSY/pptranspog
Application: Discharging a proof obligation generated by aTelierB from an anonymized B machine
Target solver: CVC5 (--mbqi --enum-inst)
Time limit: 1200.0
|)
(set-info :license "www.gnu.org/licenses/gpl-3.0.en.html")
(set-info :category "industrial")
(set-info :status unknown)

; Prelude
(declare-sort P 1)
(declare-fun mem0 (Int (P Int)) Bool)
(declare-sort C 2)

(declare-fun divB (Int Int) Int)
(assert (!
 (forall ((x Int) (y Int))
  (!
   (and
    (=> (and (<= 0 x) (< 0 y)) (= (divB x y) (div x y)))
    (=> (and (<= x 0) (< 0 y)) (= (divB x y) (- 0 (div (- 0 x) y))))
    (=> (and (<= 0 x) (< y 0)) (= (divB x y) (div x y)))
    (=> (and (<= x 0) (< y 0)) (= (divB x y) (div (- 0 x) (- 0 y))))
   )
   :pattern ((divB x y))
  )
 )
 :named |divB_axiom|))


(declare-fun iexp (Int Int) Int)
(assert (!
 (forall ((x Int))
  (!
   (=> (not (= x 0)) (= (iexp x 0) 1))
   :pattern ((iexp x 0))
  )
 )
 :named |iexp_axiom_1|
))
(assert (!
 (forall ((x Int) (n Int))
  (!
   (=> (>= n 1) (= (iexp x n) (* x (iexp x (- n 1)))))
   :pattern ((iexp x n))
  )
 )
 :named |iexp_axiom_2|))

(define-fun MinInt () Int (- 2147483648))
(define-fun MaxInt () Int 2147483647)
; Global declarations
(declare-fun g_s0_0 () (P Int))
(declare-fun g_s10_10 () Int)
(declare-fun g_s11_11 () (P Int))
(declare-fun g_s12_12 () (P (C Bool Int)))
(declare-fun g_s13_13 () (P (C (C Int Int) Int)))
(declare-fun g_s14_14 () (P (C (C Int Int) Int)))
(declare-fun g_s15_15 () (P (C (C Int Int) Int)))
(declare-fun g_s16_16 () (P (C (C Int Int) Int)))
(declare-fun g_s17_17 () (P (C (C Int Int) Int)))
(declare-fun g_s18_18 () (P (C Int Int)))
(declare-fun g_s1_1 () (P Int))
(declare-fun g_s21_19 () Int)
(declare-fun g_s22_20 () Int)
(declare-fun g_s23_21 () Int)
(declare-fun g_s24_22 () (P (C Int Int)))
(declare-fun g_s25_35 () Int)
(declare-fun g_s26_36 () Int)
(declare-fun g_s27_37 () Int)
(declare-fun g_s28_23 () (P (C Int Int)))
(declare-fun g_s29_24 () (P (C Int Int)))
(declare-fun g_s2_2 () (P Int))
(declare-fun g_s30_25 () Int)
(declare-fun g_s31_26 () Int)
(declare-fun g_s32_27 () Int)
(declare-fun g_s33_28 () Int)
(declare-fun g_s34_29 () Int)
(declare-fun g_s35_30 () Int)
(declare-fun g_s36_31 () Int)
(declare-fun g_s37_32 () Int)
(declare-fun g_s38_33 () (P (C Int Int)))
(declare-fun g_s39_34 () (P (C Int Int)))
(declare-fun g_s3_3 () (P Int))
(declare-fun g_s4_4 () Int)
(declare-fun g_s5_5 () Int)
(declare-fun g_s6_6 () Int)
(declare-fun g_s7_7 () Int)
(declare-fun g_s8_8 () Int)
(declare-fun g_s9_9 () Int)
(declare-fun mem2 ( Bool Int (P (C Bool Int))) Bool)
(declare-fun mem3 ( Int Int Int (P (C (C Int Int) Int))) Bool)
(declare-fun mem4 ( Int Int (P (C Int Int))) Bool)
; Defines
(define-fun |def_ctx_0| () Bool (forall ( (x_3 Int) ) (= (mem0 x_3 g_s0_0) (and (>= x_3 0) (<= x_3 18446744073709551615)))))
(define-fun |def_ctx_1| () Bool (forall ( (x_4 Int) ) (= (mem0 x_4 g_s1_1) (and (>= x_4 0) (<= x_4 4294967295)))))
(define-fun |def_ctx_2| () Bool (forall ( (x_5 Int) ) (= (mem0 x_5 g_s2_2) (and (>= x_5 0) (<= x_5 65535)))))
(define-fun |def_ctx_3| () Bool (forall ( (x_6 Int) ) (= (mem0 x_6 g_s3_3) (and (>= x_6 0) (<= x_6 255)))))
(define-fun |def_ctx_4| () Bool (mem0 g_s4_4 g_s0_0))
(define-fun |def_ctx_5| () Bool (mem0 g_s5_5 g_s1_1))
(define-fun |def_ctx_6| () Bool (mem0 g_s6_6 g_s2_2))
(define-fun |def_ctx_7| () Bool (mem0 g_s7_7 g_s3_3))
(define-fun |def_ctx_8| () Bool (mem0 g_s8_8 g_s1_1))
(define-fun |def_ctx_9| () Bool (mem0 g_s9_9 g_s3_3))
(define-fun |def_ctx_10| () Bool (mem0 g_s10_10 g_s3_3))
(define-fun |def_ctx_11| () Bool (= g_s4_4 18446744073709551615))
(define-fun |def_ctx_12| () Bool (= g_s5_5 4294967295))
(define-fun |def_ctx_13| () Bool (= g_s6_6 65535))
(define-fun |def_ctx_14| () Bool (= g_s7_7 255))
(define-fun |def_ctx_15| () Bool (= g_s8_8 (divB (+ g_s5_5 1) 2)))
(define-fun |def_ctx_16| () Bool (and (>= g_s9_9 0) (<= g_s9_9 g_s7_7)))
(define-fun |def_ctx_17| () Bool (and (>= g_s10_10 0) (<= g_s10_10 g_s7_7)))
(define-fun |def_ctx_18| () Bool (not (= g_s9_9 g_s10_10)))
(define-fun |def_ctx_19| () Bool (forall ( (x_7 Int) ) (= (mem0 x_7 g_s11_11) (or  (= x_7 g_s9_9) (= x_7 g_s10_10)))))
(define-fun |def_ctx_20| () Bool (<= g_s9_9 2))
(define-fun |def_ctx_21| () Bool (<= g_s10_10 2))
(define-fun |def_ctx_22| () Bool (forall ( (x_8 Int) (x_9 Bool) ) (= (mem2 x_9 x_8 g_s12_12) (or  (and (= x_9 true) (= x_8 g_s9_9)) (and (= x_9 false) (= x_8 g_s10_10))))))
(define-fun |def_ctx_23| () Bool (exists ( (x_10 (P (C (C Int Int) Int))) ) (and (forall ( (x_11 Int) (x_12 Int) (x_13 Int) ) (= (mem3 x_13 x_12 x_11 x_10) (mem3 x_13 x_12 x_11 g_s13_13))) (forall ( (x_14 Int) (x_15 Int) (x_16 Int) (x_17 Int) ) (=> (and  (mem3 x_15 x_14 x_16 x_10) (mem3 x_15 x_14 x_17 x_10)) (= x_16 x_17))) (forall ( (x_18 Int) (x_19 Int) ) (= (and (mem0 x_19 g_s1_1) (mem0 x_18 g_s3_3)) (exists ( (x_20 Int) ) (mem3 x_19 x_18 x_20 x_10)))) (forall ( (x_21 Int) ) (=> (exists ( (x_22 Int) (x_23 Int) ) (mem3 x_23 x_22 x_21 x_10)) (mem0 x_21 g_s1_1))))))
(define-fun |def_ctx_24| () Bool (exists ( (x_24 (P (C (C Int Int) Int))) ) (and (forall ( (x_25 Int) (x_26 Int) (x_27 Int) ) (= (mem3 x_27 x_26 x_25 x_24) (mem3 x_27 x_26 x_25 g_s14_14))) (forall ( (x_28 Int) (x_29 Int) (x_30 Int) (x_31 Int) ) (=> (and  (mem3 x_29 x_28 x_30 x_24) (mem3 x_29 x_28 x_31 x_24)) (= x_30 x_31))) (forall ( (x_32 Int) (x_33 Int) ) (= (and (mem0 x_33 g_s1_1) (mem0 x_32 g_s3_3)) (exists ( (x_34 Int) ) (mem3 x_33 x_32 x_34 x_24)))) (forall ( (x_35 Int) ) (=> (exists ( (x_36 Int) (x_37 Int) ) (mem3 x_37 x_36 x_35 x_24)) (mem0 x_35 g_s1_1))))))
(define-fun |def_ctx_25| () Bool (exists ( (x_38 (P (C (C Int Int) Int))) ) (and (forall ( (x_39 Int) (x_40 Int) (x_41 Int) ) (= (mem3 x_41 x_40 x_39 x_38) (mem3 x_41 x_40 x_39 g_s15_15))) (forall ( (x_42 Int) (x_43 Int) (x_44 Int) (x_45 Int) ) (=> (and  (mem3 x_43 x_42 x_44 x_38) (mem3 x_43 x_42 x_45 x_38)) (= x_44 x_45))) (forall ( (x_46 Int) (x_47 Int) ) (= (and (mem0 x_47 g_s1_1) (mem0 x_46 g_s1_1)) (exists ( (x_48 Int) ) (mem3 x_47 x_46 x_48 x_38)))) (forall ( (x_49 Int) ) (=> (exists ( (x_50 Int) (x_51 Int) ) (mem3 x_51 x_50 x_49 x_38)) (mem0 x_49 g_s1_1))))))
(define-fun |def_ctx_26| () Bool (exists ( (x_52 (P (C (C Int Int) Int))) ) (and (forall ( (x_53 Int) (x_54 Int) (x_55 Int) ) (= (mem3 x_55 x_54 x_53 x_52) (mem3 x_55 x_54 x_53 g_s16_16))) (forall ( (x_56 Int) (x_57 Int) (x_58 Int) (x_59 Int) ) (=> (and  (mem3 x_57 x_56 x_58 x_52) (mem3 x_57 x_56 x_59 x_52)) (= x_58 x_59))) (forall ( (x_60 Int) (x_61 Int) ) (= (and (mem0 x_61 g_s1_1) (mem0 x_60 g_s1_1)) (exists ( (x_62 Int) ) (mem3 x_61 x_60 x_62 x_52)))) (forall ( (x_63 Int) ) (=> (exists ( (x_64 Int) (x_65 Int) ) (mem3 x_65 x_64 x_63 x_52)) (mem0 x_63 g_s1_1))))))
(define-fun |def_ctx_27| () Bool (exists ( (x_66 (P (C (C Int Int) Int))) ) (and (forall ( (x_67 Int) (x_68 Int) (x_69 Int) ) (= (mem3 x_69 x_68 x_67 x_66) (mem3 x_69 x_68 x_67 g_s17_17))) (forall ( (x_70 Int) (x_71 Int) (x_72 Int) (x_73 Int) ) (=> (and  (mem3 x_71 x_70 x_72 x_66) (mem3 x_71 x_70 x_73 x_66)) (= x_72 x_73))) (forall ( (x_74 Int) (x_75 Int) ) (= (and (mem0 x_75 g_s1_1) (mem0 x_74 g_s1_1)) (exists ( (x_76 Int) ) (mem3 x_75 x_74 x_76 x_66)))) (forall ( (x_77 Int) ) (=> (exists ( (x_78 Int) (x_79 Int) ) (mem3 x_79 x_78 x_77 x_66)) (mem0 x_77 g_s1_1))))))
(define-fun |def_ctx_28| () Bool (exists ( (x_80 (P (C Int Int))) ) (and (forall ( (x_81 Int) (x_82 Int) ) (= (mem4 x_82 x_81 x_80) (mem4 x_82 x_81 g_s18_18))) (forall ( (x_83 Int) (x_84 Int) (x_85 Int) ) (=> (and  (mem4 x_83 x_84 x_80) (mem4 x_83 x_85 x_80)) (= x_84 x_85))) (forall ( (x_86 Int) ) (= (mem0 x_86 g_s1_1) (exists ( (x_87 Int) ) (mem4 x_86 x_87 x_80)))) (forall ( (x_88 Int) ) (=> (exists ( (x_89 Int) ) (mem4 x_89 x_88 x_80)) (mem0 x_88 g_s1_1))))))
(define-fun |def_ctx_29| () Bool (forall ( (x_90 Int) (x_91 Int) (x_92 Int) ) (= (mem3 x_92 x_91 x_90 g_s13_13) (and  (and  (mem0 x_92 g_s1_1) (mem0 x_91 g_s3_3)) (= x_90 (mod (* x_92 (iexp 2 x_91)) (+ g_s5_5 1)))))))
(define-fun |def_ctx_30| () Bool (forall ( (x_93 Int) (x_94 Int) (x_95 Int) ) (= (mem3 x_95 x_94 x_93 g_s14_14) (and  (and  (mem0 x_95 g_s1_1) (mem0 x_94 g_s3_3)) (= x_93 (divB x_95 (iexp 2 x_94)))))))
(define-fun |def_seext_0| () Bool (and (forall ( (x_96 Int) (x_97 Bool) ) (=> (mem2 x_97 x_96 g_s12_12) (and true (mem0 x_96 g_s3_3)))) (forall ( (x_98 Bool) (x_99 Int) (x_100 Int) ) (=> (and  (mem2 x_98 x_99 g_s12_12) (mem2 x_98 x_100 g_s12_12)) (= x_99 x_100)))))
(define-fun |def_seext_1| () Bool (and (forall ( (x_101 Int) (x_102 Bool) ) (=> (mem2 x_102 x_101 g_s12_12) (and true (mem0 x_101 g_s2_2)))) (forall ( (x_103 Bool) (x_104 Int) (x_105 Int) ) (=> (and  (mem2 x_103 x_104 g_s12_12) (mem2 x_103 x_105 g_s12_12)) (= x_104 x_105)))))
(define-fun |def_seext_2| () Bool (and (forall ( (x_106 Int) (x_107 Bool) ) (=> (mem2 x_107 x_106 g_s12_12) (and true (mem0 x_106 g_s1_1)))) (forall ( (x_108 Bool) (x_109 Int) (x_110 Int) ) (=> (and  (mem2 x_108 x_109 g_s12_12) (mem2 x_108 x_110 g_s12_12)) (= x_109 x_110)))))
(define-fun |def_aprp_0| () Bool (mem0 g_s21_19 g_s1_1))
(define-fun |def_aprp_1| () Bool (mem0 g_s22_20 g_s1_1))
(define-fun |def_aprp_2| () Bool (mem0 g_s23_21 g_s1_1))
(define-fun |def_aprp_3| () Bool (exists ( (x_111 (P (C Int Int))) ) (and (forall ( (x_112 Int) (x_113 Int) ) (= (mem4 x_113 x_112 x_111) (mem4 x_113 x_112 g_s24_22))) (forall ( (x_114 Int) (x_115 Int) (x_116 Int) ) (=> (and  (mem4 x_114 x_115 x_111) (mem4 x_114 x_116 x_111)) (= x_115 x_116))) (forall ( (x_117 Int) ) (= (and (>= x_117 0) (<= x_117 2)) (exists ( (x_118 Int) ) (mem4 x_117 x_118 x_111)))) (forall ( (x_119 Int) ) (=> (exists ( (x_120 Int) ) (mem4 x_120 x_119 x_111)) (mem0 x_119 g_s1_1))))))
(define-fun |def_aprp_4| () Bool (and (exists ( (x_121 (P (C Int Int))) ) (and (forall ( (x_122 Int) (x_123 Int) ) (= (mem4 x_123 x_122 x_121) (mem4 x_123 x_122 g_s24_22))) (forall ( (x_124 Int) (x_125 Int) (x_126 Int) ) (=> (and  (mem4 x_124 x_125 x_121) (mem4 x_124 x_126 x_121)) (= x_125 x_126))) (forall ( (x_127 Int) ) (= (and (>= x_127 0) (<= x_127 2)) (exists ( (x_128 Int) ) (mem4 x_127 x_128 x_121)))) (forall ( (x_129 Int) ) (=> (exists ( (x_130 Int) ) (mem4 x_130 x_129 x_121)) (mem0 x_129 g_s1_1))))) (forall ( (x_131 Int) (x_132 Int) (x_133 Int) ) (=> (and  (mem4 x_132 x_131 g_s24_22) (mem4 x_133 x_131 g_s24_22)) (= x_132 x_133)))))
(define-fun |def_aprp_5| () Bool (not (exists ( (x_134 Int) ) (forall ((x_135 Int) ) (=> (= x_135 0) (mem4 x_134 x_135 g_s24_22))))))
(define-fun |def_aprp_6| () Bool (forall ( (l_s25 Int) (l_s26 Int) ) (=> (and  (exists ( (x_136 Int) ) (mem4 l_s25 x_136 g_s24_22)) (exists ( (x_137 Int) ) (mem4 l_s26 x_137 g_s24_22)) (not (= l_s25 l_s26))) (forall ((x_138 Int)(x_139 Int)(x_140 Int) ) (=> (and (mem4 l_s25 x_138 g_s24_22) (mem4 l_s26 x_139 g_s24_22) (= x_140 0)) (mem3 x_138 x_139 x_140 g_s15_15))))))
(define-fun |def_aprp_7| () Bool (forall ( (l_s27 Int) (l_s25 Int) (l_s26 Int) ) (=> (and  (mem0 l_s27 g_s1_1) (exists ( (x_141 Int) ) (mem4 l_s25 x_141 g_s24_22)) (exists ( (x_142 Int) ) (mem4 l_s26 x_142 g_s24_22)) (not (= l_s25 l_s26)) (forall ((x_143 Int) ) (=> (mem4 l_s25 x_143 g_s24_22) (mem4 l_s27 x_143 g_s18_18)))) (forall ((x_144 Int)(x_145 Int) ) (=> (and (mem4 l_s26 x_144 g_s24_22) (mem4 l_s26 x_145 g_s24_22)) (mem3 l_s27 x_144 x_145 g_s15_15))))))
(define-fun |def_aprp_8| () Bool (exists ( (x_146 (P (C Int Int))) ) (and (forall ( (x_147 Int) (x_148 Int) ) (= (mem4 x_148 x_147 x_146) (mem4 x_148 x_147 g_s28_23))) (forall ( (x_149 Int) (x_150 Int) (x_151 Int) ) (=> (and  (mem4 x_149 x_150 x_146) (mem4 x_149 x_151 x_146)) (= x_150 x_151))) (forall ( (x_152 Int) ) (= (and (>= x_152 0) (<= x_152 2)) (exists ( (x_153 Int) ) (mem4 x_152 x_153 x_146)))) (forall ( (x_154 Int) ) (=> (exists ( (x_155 Int) ) (mem4 x_155 x_154 x_146)) (mem0 x_154 g_s1_1))))))
(define-fun |def_aprp_9| () Bool (exists ( (x_156 (P (C Int Int))) ) (and (forall ( (x_157 Int) (x_158 Int) ) (= (mem4 x_158 x_157 x_156) (mem4 x_158 x_157 g_s29_24))) (forall ( (x_159 Int) (x_160 Int) (x_161 Int) ) (=> (and  (mem4 x_159 x_160 x_156) (mem4 x_159 x_161 x_156)) (= x_160 x_161))) (forall ( (x_162 Int) ) (= (and (>= x_162 0) (<= x_162 2)) (exists ( (x_163 Int) ) (mem4 x_162 x_163 x_156)))) (forall ( (x_164 Int) ) (=> (exists ( (x_165 Int) ) (mem4 x_165 x_164 x_156)) (mem0 x_164 g_s1_1))))))
(define-fun |def_aprp_10| () Bool (mem0 g_s30_25 g_s2_2))
(define-fun |def_aprp_11| () Bool (mem0 g_s31_26 g_s2_2))
(define-fun |def_aprp_12| () Bool (mem0 g_s32_27 g_s2_2))
(define-fun |def_aprp_13| () Bool (mem0 g_s33_28 g_s2_2))
(define-fun |def_aprp_14| () Bool (mem0 g_s34_29 g_s2_2))
(define-fun |def_aprp_15| () Bool (mem0 g_s35_30 g_s1_1))
(define-fun |def_aprp_16| () Bool (mem0 g_s36_31 g_s2_2))
(define-fun |def_aprp_17| () Bool (mem0 g_s37_32 g_s2_2))
(define-fun |def_aprp_18| () Bool (exists ( (x_166 (P (C Int Int))) ) (and (forall ( (x_167 Int) (x_168 Int) ) (= (mem4 x_168 x_167 x_166) (mem4 x_168 x_167 g_s38_33))) (forall ( (x_169 Int) (x_170 Int) (x_171 Int) ) (=> (and  (mem4 x_169 x_170 x_166) (mem4 x_169 x_171 x_166)) (= x_170 x_171))) (forall ( (x_172 Int) ) (= (and (>= x_172 0) (<= x_172 2)) (exists ( (x_173 Int) ) (mem4 x_172 x_173 x_166)))) (forall ( (x_174 Int) ) (=> (exists ( (x_175 Int) ) (mem4 x_175 x_174 x_166)) (mem0 x_174 g_s2_2))))))
(define-fun |def_aprp_19| () Bool (exists ( (x_176 (P (C Int Int))) ) (and (forall ( (x_177 Int) (x_178 Int) ) (= (mem4 x_178 x_177 x_176) (mem4 x_178 x_177 g_s39_34))) (forall ( (x_179 Int) (x_180 Int) (x_181 Int) ) (=> (and  (mem4 x_179 x_180 x_176) (mem4 x_179 x_181 x_176)) (= x_180 x_181))) (forall ( (x_182 Int) ) (= (and (>= x_182 0) (<= x_182 2)) (exists ( (x_183 Int) ) (mem4 x_182 x_183 x_176)))) (forall ( (x_184 Int) ) (=> (exists ( (x_185 Int) ) (mem4 x_185 x_184 x_176)) (mem0 x_184 g_s2_2))))))
(define-fun |def_aprp_20| () Bool (forall ( (x_186 Int) (x_187 Int) ) (= (mem4 x_187 x_186 g_s28_23) (exists ( (x_188 Int) ) (and  (mem4 x_187 x_188 g_s24_22) (mem4 x_188 x_186 g_s18_18))))))
(define-fun |def_aprp_21| () Bool (<= 1 g_s34_29))
(define-fun |def_aprp_22| () Bool (< g_s30_25 (- g_s35_30 g_s34_29)))
(define-fun |def_aprp_23| () Bool (< g_s30_25 (- g_s21_19 g_s34_29)))
(define-fun |def_aprp_24| () Bool (< g_s30_25 (- g_s22_20 g_s34_29)))
(define-fun |def_aprp_25| () Bool (<= g_s30_25 g_s34_29))
(define-fun |def_aprp_26| () Bool (< g_s34_29 g_s35_30))
(define-fun |def_aprp_27| () Bool (< g_s34_29 g_s21_19))
(define-fun |def_aprp_28| () Bool (< g_s34_29 g_s22_20))
(define-fun |def_aprp_29| () Bool (not (= g_s32_27 g_s33_28)))
(define-fun |def_imlprp_0| () Bool (= g_s23_21 14))
(define-fun |def_imlprp_1| () Bool (forall ( (x_189 Int) (x_190 Int) ) (= (mem4 x_190 x_189 g_s24_22) (or  (and (= x_190 0) (= x_189 2)) (and (= x_190 1) (= x_189 4)) (and (= x_190 2) (= x_189 8))))))
(define-fun |def_imlprp_2| () Bool (forall ( (x_191 Int) (x_192 Int) ) (= (mem4 x_192 x_191 g_s28_23) (or  (and (= x_192 0) (= x_191 4294967293)) (and (= x_192 1) (= x_191 4294967291)) (and (= x_192 2) (= x_191 4294967287))))))
(define-fun |def_imlprp_3| () Bool (forall ( (x_193 Int) (x_194 Int) ) (= (mem4 x_194 x_193 g_s29_24) (or  (and (= x_194 0) (= x_193 16)) (and (= x_194 1) (= x_193 32)) (and (= x_194 2) (= x_193 64))))))
(define-fun |def_imlprp_4| () Bool (= g_s21_19 4800000))
(define-fun |def_imlprp_5| () Bool (= g_s22_20 4800000))
(define-fun |def_imlprp_6| () Bool (= g_s34_29 800))
(define-fun |def_imlprp_7| () Bool (= g_s31_26 244))
(define-fun |def_imlprp_8| () Bool (= g_s32_27 154))
(define-fun |def_imlprp_9| () Bool (= g_s33_28 587))
(define-fun |def_imlprp_10| () Bool (= g_s35_30 8000))
(define-fun |def_imlprp_11| () Bool (forall ( (x_195 Int) (x_196 Int) ) (= (mem4 x_196 x_195 g_s38_33) (or  (and (= x_196 0) (= x_195 820)) (and (= x_196 1) (= x_195 1557)) (and (= x_196 2) (= x_195 3099))))))
(define-fun |def_imlprp_12| () Bool (forall ( (x_197 Int) (x_198 Int) ) (= (mem4 x_198 x_197 g_s39_34) (or  (and (= x_198 0) (= x_197 1230)) (and (= x_198 1) (= x_197 2335)) (and (= x_198 2) (= x_197 3787))))))
(define-fun |def_imlprp_13| () Bool (= g_s36_31 0))
(define-fun |def_imlprp_14| () Bool (= g_s37_32 200))
(define-fun |def_imlprp_15| () Bool (= g_s30_25 8))
; PO group s40
(assert (! |def_ctx_0| :named |ctx0|))
(assert (! |def_ctx_1| :named |ctx1|))
(assert (! |def_ctx_2| :named |ctx2|))
(assert (! |def_ctx_3| :named |ctx3|))
(assert (! |def_ctx_4| :named |ctx4|))
(assert (! |def_ctx_5| :named |ctx5|))
(assert (! |def_ctx_6| :named |ctx6|))
(assert (! |def_ctx_7| :named |ctx7|))
(assert (! |def_ctx_8| :named |ctx8|))
(assert (! |def_ctx_9| :named |ctx9|))
(assert (! |def_ctx_10| :named |ctx10|))
(assert (! |def_ctx_11| :named |ctx11|))
(assert (! |def_ctx_12| :named |ctx12|))
(assert (! |def_ctx_13| :named |ctx13|))
(assert (! |def_ctx_14| :named |ctx14|))
(assert (! |def_ctx_15| :named |ctx15|))
(assert (! |def_ctx_16| :named |ctx16|))
(assert (! |def_ctx_17| :named |ctx17|))
(assert (! |def_ctx_18| :named |ctx18|))
(assert (! |def_ctx_19| :named |ctx19|))
(assert (! |def_ctx_20| :named |ctx20|))
(assert (! |def_ctx_21| :named |ctx21|))
(assert (! |def_ctx_22| :named |ctx22|))
(assert (! |def_ctx_23| :named |ctx23|))
(assert (! |def_ctx_24| :named |ctx24|))
(assert (! |def_ctx_25| :named |ctx25|))
(assert (! |def_ctx_26| :named |ctx26|))
(assert (! |def_ctx_27| :named |ctx27|))
(assert (! |def_ctx_28| :named |ctx28|))
(assert (! |def_ctx_29| :named |ctx29|))
(assert (! |def_ctx_30| :named |ctx30|))
(define-fun lh_1 () Bool (exists ( (x_199 Int) ) (or  (and (= g_s25_35 0) (= x_199 2)) (and (= g_s25_35 1) (= x_199 4)) (and (= g_s25_35 2) (= x_199 8)))))
(define-fun lh_2 () Bool (exists ( (x_200 Int) ) (or  (and (= g_s26_36 0) (= x_200 2)) (and (= g_s26_36 1) (= x_200 4)) (and (= g_s26_36 2) (= x_200 8)))))
(define-fun lh_3 () Bool (not (= g_s25_35 g_s26_36)))
(define-fun lh_4 () Bool (mem0 g_s27_37 g_s1_1))
(define-fun lh_5 () Bool (forall ((x_201 Int) ) (=> (or  (and (= g_s25_35 0) (= x_201 2)) (and (= g_s25_35 1) (= x_201 4)) (and (= g_s25_35 2) (= x_201 8))) (mem4 g_s27_37 x_201 g_s18_18))))
; PO 17 in group s40
(assert (! (not (exists ( (x_202 (P (C Int Int))) ) (and (forall ( (x_203 Int) (x_204 Int) ) (= (mem4 x_204 x_203 x_202) (or  (and (= x_204 0) (= x_203 820)) (and (= x_204 1) (= x_203 1557)) (and (= x_204 2) (= x_203 3099))))) (forall ( (x_205 Int) (x_206 Int) (x_207 Int) ) (=> (and  (mem4 x_205 x_206 x_202) (mem4 x_205 x_207 x_202)) (= x_206 x_207))) (forall ( (x_208 Int) ) (= (and (>= x_208 0) (<= x_208 2)) (exists ( (x_209 Int) ) (mem4 x_208 x_209 x_202)))) (forall ( (x_210 Int) ) (=> (exists ( (x_211 Int) ) (mem4 x_211 x_210 x_202)) (mem0 x_210 g_s2_2)))))) :named goal))
(check-sat)
(exit)
